SPARKNaCl/why3-z3/sparknacl-utils.adb_136_24_index_check_1.smt2
;; produced by z3_gnatprove.drv ;;
(set-info :smt-lib-version 2.5)
(set-info :source |VC generated by SPARK 2014|)
(set-info :category industrial)
(set-info :status unknown)
;;; generated by SMT-LIB2 driver
;;; SMT-LIB2 driver: bit-vectors, common part
;;; SMT-LIB2: integer arithmetic
(declare-datatypes ()
  ((int__ref (int__refqtmk (int__content Int)))))

(declare-datatypes ()
  ((t__ref (t__refqtmk (t__content (_ BitVec 16))))))

(declare-sort gf16_normal_limb 0)

;; "to_rep"
(declare-fun to_rep (gf16_normal_limb) (_ BitVec 16))

;; "of_rep"
(declare-fun of_rep ((_ BitVec 16)) gf16_normal_limb)

;; "inversion_axiom"
(assert
  (forall ((x gf16_normal_limb))
    (! (= (of_rep (to_rep x)) x) :pattern ((to_rep x)) )))

;; "range_axiom"
(assert true)

;; "coerce_axiom"
(assert
  (forall ((x (_ BitVec 16)))
    (! (= (to_rep (of_rep x)) x) :pattern ((to_rep (of_rep x))) )))

(declare-sort map1 0)

(declare-datatypes ()
  ((map__ref (map__refqtmk (map__content map1)))))

;; "has_bounds"
(declare-fun has_bounds (map1
  Int
  Int) Bool)

;; "get"
(declare-fun get (map1
  Int) gf16_normal_limb)

;; "set"
(declare-fun set (map1
  Int
  gf16_normal_limb) map1)

;; "set_eq"
(assert
  (forall ((a map1) (i Int) (v gf16_normal_limb))
    (! (= (get (set a i v) i) v) :pattern ((set a i v)) )))

;; "set_neq"
(assert
  (forall ((a map1) (i Int) (v gf16_normal_limb))
    (! (forall ((j Int))
         (! (=> (not (= i j)) (= (get (set a i v) j) (get a j))) :pattern (
         (get
           a
           j)) :pattern ((get (set a i v) j)) )) :pattern ((set a i v)) )))

;; "set_has_bounds"
(assert
  (forall ((a map1) (i Int) (f Int) (l Int) (v gf16_normal_limb))
    (! (=>
         (and (<= f i) (<= i l))
         (=> (has_bounds a f l) (has_bounds (set a i v) f l))) :pattern (
    (has_bounds
      (set a i v)
      f
      l)) )))

(declare-const swap Bool)

(declare-const p map1)

(declare-const q map1)

(declare-const t (_ BitVec 16))

;; "t'unused"
(define-fun tqtunused () t__ref
  (t__refqtmk t))

;; "q'unused"
(define-fun qqtunused () map__ref
  (map__refqtmk q))

;; "p'unused"
(define-fun pqtunused () map__ref
  (map__refqtmk p))

;; "Assume"
(assert (has_bounds p 0 15))

;; "Assume"
(assert (has_bounds q 0 15))

;; "temp___729"
(define-fun temp___729 () Bool
  swap)

;; "temp___old_763'unused"
(define-fun temp___old_763qtunused () map1
  q)

;; "map__content'result'unused"
(define-fun map__contentqtresultqtunused () map1
  q)

;; "temp___old_762'unused"
(define-fun temp___old_762qtunused () map1
  p)

;; "map__content'result'unused"
(define-fun map__contentqtresultqtunused1 () map1
  p)

;; "temp___old_761'unused"
(define-fun temp___old_761qtunused () map1
  p)

;; "map__content'result'unused"
(define-fun map__contentqtresultqtunused2 () map1
  p)

;; "temp___old_760'unused"
(define-fun temp___old_760qtunused () map1
  q)

;; "map__content'result'unused"
(define-fun map__contentqtresultqtunused3 () map1
  q)

;; "Assume"
(assert true)

;; "Assume"
(assert true)

;; "o"
(define-fun o () Int
  (ite swap 1 0))

;; "to_int'result'unused"
(define-fun to_intqtresultqtunused () Int
  o)

;; "o"
(define-fun o1 () (_ BitVec 16)
  ((_ int2bv 16) o))

;; "of_int'result'unused"
(define-fun of_intqtresultqtunused () (_ BitVec 16)
  o1)

;; "o"
(define-fun o2 () (_ BitVec 16)
  (bvmul #xFFFF o1))

;; "mul'result'unused"
(define-fun mulqtresultqtunused () (_ BitVec 16)
  o2)

;; "Ensures"
(assert true)

;; "range_check_'result'unused"
(define-fun range_check_qtresultqtunused () (_ BitVec 16)
  o2)

(declare-const c (_ BitVec 16))

;; "c'unused"
(define-fun cqtunused () t__ref
  (t__refqtmk c))

;; "H"
(assert (= c o2))

;; "Assume"
(assert true)

(declare-const i Int)

;; "i'unused"
(define-fun iqtunused () int__ref
  (int__refqtmk i))

;; "H"
(assert (= i 0))

;; "int__content'result'unused"
(define-fun int__contentqtresultqtunused () Int
  i)

;; "o"
(define-fun o3 () Bool
  (ite (<= i 15) true false))

;; "infix <='result'unused"
(define-fun infix_lseqqtresultqtunused () Bool
  o3)

;; "int__content'result'unused"
(define-fun int__contentqtresultqtunused1 () Int
  i)

;; "o"
(define-fun o4 () Bool
  (ite (<= 0 i) true false))

;; "infix <='result'unused"
(define-fun infix_lseqqtresultqtunused1 () Bool
  o4)

;; "o"
(define-fun o5 () Bool
  (and o4 o3))

;; "andb'result'unused"
(define-fun andbqtresultqtunused () Bool
  o5)

;; "H"
(assert (= o5 true))

;; "temp___loop_entry_748'unused"
(define-fun temp___loop_entry_748qtunused () map1
  p)

;; "map__content'result'unused"
(define-fun map__contentqtresultqtunused4 () map1
  p)

;; "temp___loop_entry_745'unused"
(define-fun temp___loop_entry_745qtunused () map1
  q)

;; "map__content'result'unused"
(define-fun map__contentqtresultqtunused5 () map1
  q)

;; "temp___loop_entry_754'unused"
(define-fun temp___loop_entry_754qtunused () map1
  q)

;; "map__content'result'unused"
(define-fun map__contentqtresultqtunused6 () map1
  q)

;; "temp___loop_entry_751'unused"
(define-fun temp___loop_entry_751qtunused () map1
  p)

;; "map__content'result'unused"
(define-fun map__contentqtresultqtunused7 () map1
  p)

;; "temp___loop_entry_741'unused"
(define-fun temp___loop_entry_741qtunused () map1
  q)

;; "map__content'result'unused"
(define-fun map__contentqtresultqtunused8 () map1
  q)

;; "temp___loop_entry_738'unused"
(define-fun temp___loop_entry_738qtunused () map1
  p)

;; "map__content'result'unused"
(define-fun map__contentqtresultqtunused9 () map1
  p)

;; "temp___loop_entry_736'unused"
(define-fun temp___loop_entry_736qtunused () (_ BitVec 16)
  t)

;; "t__content'result'unused"
(define-fun t__contentqtresultqtunused () (_ BitVec 16)
  t)

;; "int__content'result'unused"
(define-fun int__contentqtresultqtunused2 () Int
  i)

;; "map__content'result'unused"
(define-fun map__contentqtresultqtunused10 () map1
  q)

;; "o"
(define-fun o6 () gf16_normal_limb
  (get q i))

;; "get'result'unused"
(define-fun getqtresultqtunused () gf16_normal_limb
  o6)

(declare-const o7 (_ BitVec 16))

;; "Ensures"
(assert (= (to_rep o6) o7))

;; "to_rep'result'unused"
(define-fun to_repqtresultqtunused () (_ BitVec 16)
  o7)

;; "int__content'result'unused"
(define-fun int__contentqtresultqtunused3 () Int
  i)

;; "map__content'result'unused"
(define-fun map__contentqtresultqtunused11 () map1
  p)

;; "o"
(define-fun o8 () gf16_normal_limb
  (get p i))

;; "get'result'unused"
(define-fun getqtresultqtunused1 () gf16_normal_limb
  o8)

(declare-const o9 (_ BitVec 16))

;; "Ensures"
(assert (= (to_rep o8) o9))

;; "to_rep'result'unused"
(define-fun to_repqtresultqtunused1 () (_ BitVec 16)
  o9)

;; "o"
(define-fun o10 () (_ BitVec 16)
  (bvxor o9 o7))

;; "bw_xor'result'unused"
(define-fun bw_xorqtresultqtunused () (_ BitVec 16)
  o10)

;; "t__content'result'unused"
(define-fun t__contentqtresultqtunused1 () (_ BitVec 16)
  c)

;; "o"
(define-fun o11 () (_ BitVec 16)
  (bvand c o10))

;; "bw_and'result'unused"
(define-fun bw_andqtresultqtunused () (_ BitVec 16)
  o11)

(declare-const t1 (_ BitVec 16))

;; "t'unused"
(define-fun tqtunused1 () t__ref
  (t__refqtmk t1))

;; "H"
(assert (= t1 o11))

;; "Assert"
(assert
  (ite (= swap true)
    (and
      (and
        (= t1 (bvxor (to_rep (get p i)) (to_rep (get q i))))
        (= (bvxor (to_rep (get p i)) t1) (to_rep (get q i))))
      (= (bvxor (to_rep (get q i)) t1) (to_rep (get p i))))
    (and
      (and
        (= t1 #x0000)
        (= (bvxor (to_rep (get p i)) t1) (to_rep (get p i))))
      (= (bvxor (to_rep (get q i)) t1) (to_rep (get q i))))))

;; "t__content'result'unused"
(define-fun t__contentqtresultqtunused2 () (_ BitVec 16)
  t1)

;; "int__content'result'unused"
(define-fun int__contentqtresultqtunused4 () Int
  i)

;; "map__content'result'unused"
(define-fun map__contentqtresultqtunused12 () map1
  p)

;; "o"
(define-fun o12 () gf16_normal_limb
  (get p i))

;; "get'result'unused"
(define-fun getqtresultqtunused2 () gf16_normal_limb
  o12)

(declare-const o13 (_ BitVec 16))

;; "Ensures"
(assert (= (to_rep o12) o13))

;; "to_rep'result'unused"
(define-fun to_repqtresultqtunused2 () (_ BitVec 16)
  o13)

;; "o"
(define-fun o14 () (_ BitVec 16)
  (bvxor o13 t1))

;; "bw_xor'result'unused"
(define-fun bw_xorqtresultqtunused1 () (_ BitVec 16)
  o14)

(declare-const o15 gf16_normal_limb)

;; "Ensures"
(assert (= (to_rep o15) o14))

;; "of_rep'result'unused"
(define-fun of_repqtresultqtunused () gf16_normal_limb
  o15)

;; "int__content'result'unused"
(define-fun int__contentqtresultqtunused5 () Int
  i)

;; "map__content'result'unused"
(define-fun map__contentqtresultqtunused13 () map1
  p)

;; "o"
(define-fun o16 () map1
  (set p i o15))

;; "set'result'unused"
(define-fun setqtresultqtunused () map1
  o16)

(declare-const p1 map1)

;; "p'unused"
(define-fun pqtunused1 () map__ref
  (map__refqtmk p1))

;; "H"
(assert (= p1 o16))

;; "t__content'result'unused"
(define-fun t__contentqtresultqtunused3 () (_ BitVec 16)
  t1)

;; "int__content'result'unused"
(define-fun int__contentqtresultqtunused6 () Int
  i)

;; "map__content'result'unused"
(define-fun map__contentqtresultqtunused14 () map1
  q)

;; "o"
(define-fun o17 () gf16_normal_limb
  (get q i))

;; "get'result'unused"
(define-fun getqtresultqtunused3 () gf16_normal_limb
  o17)

(declare-const o18 (_ BitVec 16))

;; "Ensures"
(assert (= (to_rep o17) o18))

;; "to_rep'result'unused"
(define-fun to_repqtresultqtunused3 () (_ BitVec 16)
  o18)

;; "o"
(define-fun o19 () (_ BitVec 16)
  (bvxor o18 t1))

;; "bw_xor'result'unused"
(define-fun bw_xorqtresultqtunused2 () (_ BitVec 16)
  o19)

(declare-const o20 gf16_normal_limb)

;; "Ensures"
(assert (= (to_rep o20) o19))

;; "of_rep'result'unused"
(define-fun of_repqtresultqtunused1 () gf16_normal_limb
  o20)

;; "int__content'result'unused"
(define-fun int__contentqtresultqtunused7 () Int
  i)

;; "map__content'result'unused"
(define-fun map__contentqtresultqtunused15 () map1
  q)

;; "o"
(define-fun o21 () map1
  (set q i o20))

;; "set'result'unused"
(define-fun setqtresultqtunused1 () map1
  o21)

(declare-const q1 map1)

;; "q'unused"
(define-fun qqtunused1 () map__ref
  (map__refqtmk q1))

;; "H"
(assert (= q1 o21))

;; "H"
(assert (not (= swap true)))

(declare-const usf Int)

;; "any'result'unused"
(define-fun anyqtresultqtunused () Int
  usf)

;; "j'unused"
(define-fun jqtunused () Int
  usf)

;; "int__content'result'unused"
(define-fun int__contentqtresultqtunused8 () Int
  i)

;; "o"
(define-fun o22 () Bool
  (ite (<= usf i) true false))

;; "infix <='result'unused"
(define-fun infix_lseqqtresultqtunused2 () Bool
  o22)

;; "o"
(define-fun o23 () Bool
  (ite (<= 0 usf) true false))

;; "infix <='result'unused"
(define-fun infix_lseqqtresultqtunused3 () Bool
  o23)

;; "o"
(define-fun o24 () Bool
  (and o23 o22))

;; "andb'result'unused"
(define-fun andbqtresultqtunused1 () Bool
  o24)

;; "H"
(assert (= o24 true))

;; "Assert"
(assert (and (<= 0 usf) (<= usf 15)))

;; "o"
(define-fun o25 () gf16_normal_limb
  (get q usf))

;; "get'result'unused"
(define-fun getqtresultqtunused4 () gf16_normal_limb
  o25)

(declare-const o26 (_ BitVec 16))

;; "Ensures"
(assert (= (to_rep o25) o26))

;; "to_rep'result'unused"
(define-fun to_repqtresultqtunused4 () (_ BitVec 16)
  o26)

;; "Assert"
(assert (and (<= 0 usf) (<= usf 15)))

;; "map__content'result'unused"
(define-fun map__contentqtresultqtunused16 () map1
  q1)

;; "o"
(define-fun o27 () gf16_normal_limb
  (get q1 usf))

;; "get'result'unused"
(define-fun getqtresultqtunused5 () gf16_normal_limb
  o27)

(declare-const o28 (_ BitVec 16))

;; "Ensures"
(assert (= (to_rep o27) o28))

;; "to_rep'result'unused"
(define-fun to_repqtresultqtunused5 () (_ BitVec 16)
  o28)

;; "o"
(define-fun o29 () Bool
  (ite (= o28 o26) true false))

;; "eq'result'unused"
(define-fun eqqtresultqtunused () Bool
  o29)

;; "Assert"
(assert (and (<= 0 usf) (<= usf 15)))

;; "o"
(define-fun o30 () gf16_normal_limb
  (get p usf))

;; "get'result'unused"
(define-fun getqtresultqtunused6 () gf16_normal_limb
  o30)

(declare-const o31 (_ BitVec 16))

;; "Ensures"
(assert (= (to_rep o30) o31))

;; "to_rep'result'unused"
(define-fun to_repqtresultqtunused6 () (_ BitVec 16)
  o31)

;; Goal "def'vc"
;; File "sparknacl-utils.ads", line 44, characters 0-0
(assert
  (not (<= 0 usf)))

(check-sat)
